computational_data/solutions/ER_n40_p035_s8.sol
Optimal - objective value 9.00000000
     14 r_14                        1                       1
     18 r_18                        1                       1
     20 r_20                        1                       1
     21 r_21                        1                       1
     25 r_25                        1                       1
     41 b_1                         1                       1
     44 b_4                         1                       1
     64 b_24                        1                       1
     77 b_37                        1                       1
